p cnf 479 1438
a 114 0
e 1 2 3 140 142 478 479 0
a 115 116 0
e 4 5 6 7 8 9 10 11 12 13 14 145 463 464 465 466 467 468 469 470 471 472 473 474 475 476 477 0
a 117 118 119 0
e 15 16 17 18 19 20 21 22 23 24 25 26 27 28 29 30 152 158 161 164 167 170 172 175 178 180 182 184 185 461 462 0
a 120 121 122 0
e 31 32 33 34 35 36 37 38 39 40 41 42 43 44 45 46 192 195 201 204 207 210 213 216 219 221 224 227 229 231 233 234 459 460 0
a 123 124 125 0
e 47 48 49 50 51 52 53 54 55 56 57 58 59 60 61 62 241 244 250 253 256 259 262 265 268 270 273 276 278 280 282 283 457 458 0
a 126 127 128 0
e 63 64 65 66 67 68 69 70 71 72 73 74 75 76 77 78 79 290 293 300 303 306 309 312 315 318 320 323 325 327 329 331 332 455 456 0
a 129 130 131 0
e 80 81 82 83 84 85 86 87 88 89 90 91 92 93 94 339 342 347 350 353 356 359 362 365 368 370 373 375 377 379 381 451 452 453 454 0
a 132 133 134 0
e 95 96 97 98 99 100 101 102 103 104 386 389 393 396 399 402 405 408 410 412 414 447 448 449 450 0
a 135 136 137 0
e 105 106 107 108 109 110 419 422 425 427 430 432 433 445 446 0
a 138 139 0
e 111 112 113 436 439 442 443 444 141 143 144 146 147 148 149 150 151 153 154 155 156 157 159 160 162 163 165 166 168 169 171 173 174 176 177 179 181 183 186 187 188 189 190 191 193 194 196 197 198 199 200 202 203 205 206 208 209 211 212 214 215 217 218 220 222 223 225 226 228 230 232 235 236 237 238 239 240 242 243 245 246 247 248 249 251 252 254 255 257 258 260 261 263 264 266 267 269 271 272 274 275 277 279 281 284 285 286 287 288 289 291 292 294 295 296 297 298 299 301 302 304 305 307 308 310 311 313 314 316 317 319 321 322 324 326 328 330 333 334 335 336 337 338 340 341 343 344 345 346 348 349 351 352 354 355 357 358 360 361 363 364 366 367 369 371 372 374 376 378 380 382 383 384 385 387 388 390 391 392 394 395 397 398 400 401 403 404 406 407 409 411 413 415 416 417 418 420 421 423 424 426 428 429 431 434 435 437 438 440 441 0
140 479 0
-140 -114 0
114 140 0
-478 -142 479 0
-479 142 0
-479 478 0
-142 -114 141 0
114 142 0
-141 142 0
-3 -2 -1 141 0
-141 3 0
-141 1 0
-141 2 0
-478 145 477 0
-145 478 0
-477 478 0
-144 -143 145 0
-145 143 0
-145 144 0
-143 -116 -2 115 0
2 143 0
-115 143 0
116 143 0
-144 -116 -115 -1 0
1 144 0
115 144 0
116 144 0
-476 -473 -470 -463 477 0
-477 463 0
-477 470 0
-477 473 0
-477 476 0
-463 152 462 0
-152 463 0
-462 463 0
-151 -150 -149 -148 -147 -146 152 0
-152 146 0
-152 147 0
-152 148 0
-152 149 0
-152 150 0
-152 151 0
-146 -118 -9 117 119 0
9 146 0
-117 146 0
118 146 0
-119 146 0
-147 -118 -117 -8 119 0
8 147 0
117 147 0
118 147 0
-119 147 0
-148 -119 -7 117 118 0
7 148 0
-117 148 0
-118 148 0
119 148 0
-149 -119 -117 -6 118 0
6 149 0
117 149 0
-118 149 0
119 149 0
-150 -119 -118 -5 117 0
5 150 0
-117 150 0
118 150 0
119 150 0
-151 -119 -118 -117 -4 0
4 151 0
117 151 0
118 151 0
119 151 0
-461 -185 -184 -182 -180 -178 -175 -172 -170 -167 -164 -161 -158 462 0
-462 158 0
-462 161 0
-462 164 0
-462 167 0
-462 170 0
-462 172 0
-462 175 0
-462 178 0
-462 180 0
-462 182 0
-462 184 0
-462 185 0
-462 461 0
-158 154 157 0
-154 158 0
-157 158 0
-154 -14 153 0
14 154 0
-153 154 0
4 5 6 7 8 9 153 0
-153 -9 0
-153 -8 0
-153 -7 0
-153 -6 0
-153 -5 0
-153 -4 0
-156 -155 -27 157 0
-157 27 0
-157 155 0
-157 156 0
-155 15 22 0
-15 155 0
-22 155 0
-156 17 24 0
-17 156 0
-24 156 0
-161 20 23 160 0
-160 161 0
-20 161 0
-23 161 0
-160 -13 159 0
13 160 0
-159 160 0
4 5 6 7 8 9 159 0
-159 -9 0
-159 -8 0
-159 -7 0
-159 -6 0
-159 -5 0
-159 -4 0
-164 28 163 0
-163 164 0
-28 164 0
-163 -12 162 0
12 163 0
-162 163 0
4 5 6 7 8 9 162 0
-162 -9 0
-162 -8 0
-162 -7 0
-162 -6 0
-162 -5 0
-162 -4 0
-167 25 166 0
-166 167 0
-25 167 0
-166 -11 165 0
11 166 0
-165 166 0
4 5 6 7 8 9 165 0
-165 -9 0
-165 -8 0
-165 -7 0
-165 -6 0
-165 -5 0
-165 -4 0
-170 21 169 0
-169 170 0
-21 170 0
-169 -10 168 0
10 169 0
-168 169 0
4 5 6 7 8 9 168 0
-168 -9 0
-168 -8 0
-168 -7 0
-168 -6 0
-168 -5 0
-168 -4 0
-172 30 171 0
-171 172 0
-30 172 0
-171 -118 117 119 0
-117 171 0
118 171 0
-119 171 0
-175 173 174 0
-173 175 0
-174 175 0
-173 -118 -117 119 0
117 173 0
118 173 0
-119 173 0
-26 -19 -18 174 0
-174 26 0
-174 18 0
-174 19 0
-178 176 177 0
-176 178 0
-177 178 0
-176 -119 117 118 0
-117 176 0
-118 176 0
119 176 0
-17 -16 177 0
-177 17 0
-177 16 0
-180 29 179 0
-179 180 0
-29 180 0
-179 -119 -117 118 0
117 179 0
-118 179 0
119 179 0
-182 28 181 0
-181 182 0
-28 182 0
-181 -119 -118 117 0
-117 181 0
118 181 0
119 181 0
-184 25 183 0
-183 184 0
-25 184 0
-183 -119 -118 -117 0
117 183 0
118 183 0
119 183 0
-185 -30 -29 0
29 185 0
30 185 0
-461 192 460 0
-192 461 0
-460 461 0
-191 -190 -189 -188 -187 -186 192 0
-192 186 0
-192 187 0
-192 188 0
-192 189 0
-192 190 0
-192 191 0
-186 -121 -20 120 122 0
20 186 0
-120 186 0
121 186 0
-122 186 0
-187 -121 -120 -19 122 0
19 187 0
120 187 0
121 187 0
-122 187 0
-188 -122 -18 120 121 0
18 188 0
-120 188 0
-121 188 0
122 188 0
-189 -122 -120 -17 121 0
17 189 0
120 189 0
-121 189 0
122 189 0
-190 -122 -121 -16 120 0
16 190 0
-120 190 0
121 190 0
122 190 0
-191 -122 -121 -120 -15 0
15 191 0
120 191 0
121 191 0
122 191 0
-459 -234 -233 -231 -229 -227 -224 -221 -219 -216 -213 -210 -207 -204 -201 -195 460 0
-460 195 0
-460 201 0
-460 204 0
-460 207 0
-460 210 0
-460 213 0
-460 216 0
-460 219 0
-460 221 0
-460 224 0
-460 227 0
-460 229 0
-460 231 0
-460 233 0
-460 234 0
-460 459 0
-195 46 194 0
-194 195 0
-46 195 0
-194 -28 193 0
28 194 0
-193 194 0
15 16 17 18 19 20 193 0
-193 -20 0
-193 -19 0
-193 -18 0
-193 -17 0
-193 -16 0
-193 -15 0
-201 197 200 0
-197 201 0
-200 201 0
-197 -27 196 0
27 197 0
-196 197 0
15 16 17 18 19 20 196 0
-196 -20 0
-196 -19 0
-196 -18 0
-196 -17 0
-196 -16 0
-196 -15 0
-199 -198 -43 200 0
-200 43 0
-200 198 0
-200 199 0
-198 31 38 0
-31 198 0
-38 198 0
-199 33 40 0
-33 199 0
-40 199 0
-204 36 39 203 0
-203 204 0
-36 204 0
-39 204 0
-203 -26 202 0
26 203 0
-202 203 0
15 16 17 18 19 20 202 0
-202 -20 0
-202 -19 0
-202 -18 0
-202 -17 0
-202 -16 0
-202 -15 0
-207 45 206 0
-206 207 0
-45 207 0
-206 -25 205 0
25 206 0
-205 206 0
15 16 17 18 19 20 205 0
-205 -20 0
-205 -19 0
-205 -18 0
-205 -17 0
-205 -16 0
-205 -15 0
-210 44 209 0
-209 210 0
-44 210 0
-209 -24 208 0
24 209 0
-208 209 0
15 16 17 18 19 20 208 0
-208 -20 0
-208 -19 0
-208 -18 0
-208 -17 0
-208 -16 0
-208 -15 0
-213 41 212 0
-212 213 0
-41 213 0
-212 -23 211 0
23 212 0
-211 212 0
15 16 17 18 19 20 211 0
-211 -20 0
-211 -19 0
-211 -18 0
-211 -17 0
-211 -16 0
-211 -15 0
-216 37 215 0
-215 216 0
-37 216 0
-215 -22 214 0
22 215 0
-214 215 0
15 16 17 18 19 20 214 0
-214 -20 0
-214 -19 0
-214 -18 0
-214 -17 0
-214 -16 0
-214 -15 0
-219 36 218 0
-218 219 0
-36 219 0
-218 -21 217 0
21 218 0
-217 218 0
15 16 17 18 19 20 217 0
-217 -20 0
-217 -19 0
-217 -18 0
-217 -17 0
-217 -16 0
-217 -15 0
-221 46 220 0
-220 221 0
-46 221 0
-220 -121 120 122 0
-120 220 0
121 220 0
-122 220 0
-224 222 223 0
-222 224 0
-223 224 0
-222 -121 -120 122 0
120 222 0
121 222 0
-122 222 0
-42 -35 -34 223 0
-223 42 0
-223 34 0
-223 35 0
-227 225 226 0
-225 227 0
-226 227 0
-225 -122 120 121 0
-120 225 0
-121 225 0
122 225 0
-33 -32 226 0
-226 33 0
-226 32 0
-229 45 228 0
-228 229 0
-45 229 0
-228 -122 -120 121 0
120 228 0
-121 228 0
122 228 0
-231 44 230 0
-230 231 0
-44 231 0
-230 -122 -121 120 0
-120 230 0
121 230 0
122 230 0
-233 41 232 0
-232 233 0
-41 233 0
-232 -122 -121 -120 0
120 232 0
121 232 0
122 232 0
-234 -46 -45 0
45 234 0
46 234 0
-459 241 458 0
-241 459 0
-458 459 0
-240 -239 -238 -237 -236 -235 241 0
-241 235 0
-241 236 0
-241 237 0
-241 238 0
-241 239 0
-241 240 0
-235 -124 -36 123 125 0
36 235 0
-123 235 0
124 235 0
-125 235 0
-236 -124 -123 -35 125 0
35 236 0
123 236 0
124 236 0
-125 236 0
-237 -125 -34 123 124 0
34 237 0
-123 237 0
-124 237 0
125 237 0
-238 -125 -123 -33 124 0
33 238 0
123 238 0
-124 238 0
125 238 0
-239 -125 -124 -32 123 0
32 239 0
-123 239 0
124 239 0
125 239 0
-240 -125 -124 -123 -31 0
31 240 0
123 240 0
124 240 0
125 240 0
-457 -283 -282 -280 -278 -276 -273 -270 -268 -265 -262 -259 -256 -253 -250 -244 458 0
-458 244 0
-458 250 0
-458 253 0
-458 256 0
-458 259 0
-458 262 0
-458 265 0
-458 268 0
-458 270 0
-458 273 0
-458 276 0
-458 278 0
-458 280 0
-458 282 0
-458 283 0
-458 457 0
-244 62 243 0
-243 244 0
-62 244 0
-243 -44 242 0
44 243 0
-242 243 0
31 32 33 34 35 36 242 0
-242 -36 0
-242 -35 0
-242 -34 0
-242 -33 0
-242 -32 0
-242 -31 0
-250 246 249 0
-246 250 0
-249 250 0
-246 -43 245 0
43 246 0
-245 246 0
31 32 33 34 35 36 245 0
-245 -36 0
-245 -35 0
-245 -34 0
-245 -33 0
-245 -32 0
-245 -31 0
-248 -247 -59 249 0
-249 59 0
-249 247 0
-249 248 0
-247 48 54 0
-48 247 0
-54 247 0
-248 50 56 0
-50 248 0
-56 248 0
-253 52 55 252 0
-252 253 0
-52 253 0
-55 253 0
-252 -42 251 0
42 252 0
-251 252 0
31 32 33 34 35 36 251 0
-251 -36 0
-251 -35 0
-251 -34 0
-251 -33 0
-251 -32 0
-251 -31 0
-256 61 255 0
-255 256 0
-61 256 0
-255 -41 254 0
41 255 0
-254 255 0
31 32 33 34 35 36 254 0
-254 -36 0
-254 -35 0
-254 -34 0
-254 -33 0
-254 -32 0
-254 -31 0
-259 60 258 0
-258 259 0
-60 259 0
-258 -40 257 0
40 258 0
-257 258 0
31 32 33 34 35 36 257 0
-257 -36 0
-257 -35 0
-257 -34 0
-257 -33 0
-257 -32 0
-257 -31 0
-262 57 261 0
-261 262 0
-57 262 0
-261 -39 260 0
39 261 0
-260 261 0
31 32 33 34 35 36 260 0
-260 -36 0
-260 -35 0
-260 -34 0
-260 -33 0
-260 -32 0
-260 -31 0
-265 53 264 0
-264 265 0
-53 265 0
-264 -38 263 0
38 264 0
-263 264 0
31 32 33 34 35 36 263 0
-263 -36 0
-263 -35 0
-263 -34 0
-263 -33 0
-263 -32 0
-263 -31 0
-268 52 267 0
-267 268 0
-52 268 0
-267 -37 266 0
37 267 0
-266 267 0
31 32 33 34 35 36 266 0
-266 -36 0
-266 -35 0
-266 -34 0
-266 -33 0
-266 -32 0
-266 -31 0
-270 62 269 0
-269 270 0
-62 270 0
-269 -124 123 125 0
-123 269 0
124 269 0
-125 269 0
-273 271 272 0
-271 273 0
-272 273 0
-271 -124 -123 125 0
123 271 0
124 271 0
-125 271 0
-58 -51 -47 272 0
-272 58 0
-272 51 0
-272 47 0
-276 274 275 0
-274 276 0
-275 276 0
-274 -125 123 124 0
-123 274 0
-124 274 0
125 274 0
-50 -49 275 0
-275 50 0
-275 49 0
-278 61 277 0
-277 278 0
-61 278 0
-277 -125 -123 124 0
123 277 0
-124 277 0
125 277 0
-280 60 279 0
-279 280 0
-60 280 0
-279 -125 -124 123 0
-123 279 0
124 279 0
125 279 0
-282 57 281 0
-281 282 0
-57 282 0
-281 -125 -124 -123 0
123 281 0
124 281 0
125 281 0
-283 -62 -61 0
61 283 0
62 283 0
-457 290 456 0
-290 457 0
-456 457 0
-289 -288 -287 -286 -285 -284 290 0
-290 284 0
-290 285 0
-290 286 0
-290 287 0
-290 288 0
-290 289 0
-284 -127 -52 126 128 0
52 284 0
-126 284 0
127 284 0
-128 284 0
-285 -127 -126 -51 128 0
51 285 0
126 285 0
127 285 0
-128 285 0
-286 -128 -50 126 127 0
50 286 0
-126 286 0
-127 286 0
128 286 0
-287 -128 -126 -49 127 0
49 287 0
126 287 0
-127 287 0
128 287 0
-288 -128 -127 -48 126 0
48 288 0
-126 288 0
127 288 0
128 288 0
-289 -128 -127 -126 -47 0
47 289 0
126 289 0
127 289 0
128 289 0
-455 -332 -331 -329 -327 -325 -323 -320 -318 -315 -312 -309 -306 -303 -300 -293 456 0
-456 293 0
-456 300 0
-456 303 0
-456 306 0
-456 309 0
-456 312 0
-456 315 0
-456 318 0
-456 320 0
-456 323 0
-456 325 0
-456 327 0
-456 329 0
-456 331 0
-456 332 0
-456 455 0
-293 79 292 0
-292 293 0
-79 293 0
-292 -60 291 0
60 292 0
-291 292 0
47 48 49 50 51 52 291 0
-291 -52 0
-291 -51 0
-291 -50 0
-291 -49 0
-291 -48 0
-291 -47 0
-300 295 299 0
-295 300 0
-299 300 0
-295 -59 294 0
59 295 0
-294 295 0
47 48 49 50 51 52 294 0
-294 -52 0
-294 -51 0
-294 -50 0
-294 -49 0
-294 -48 0
-294 -47 0
-298 -297 -296 -76 -67 299 0
-299 76 0
-299 296 0
-299 297 0
-299 298 0
-299 67 0
-296 63 72 0
-63 296 0
-72 296 0
-297 66 74 0
-66 297 0
-74 297 0
-298 64 71 0
-64 298 0
-71 298 0
-303 68 73 302 0
-302 303 0
-68 303 0
-73 303 0
-302 -58 301 0
58 302 0
-301 302 0
47 48 49 50 51 52 301 0
-301 -52 0
-301 -51 0
-301 -50 0
-301 -49 0
-301 -48 0
-301 -47 0
-306 78 305 0
-305 306 0
-78 306 0
-305 -57 304 0
57 305 0
-304 305 0
47 48 49 50 51 52 304 0
-304 -52 0
-304 -51 0
-304 -50 0
-304 -49 0
-304 -48 0
-304 -47 0
-309 77 308 0
-308 309 0
-77 309 0
-308 -56 307 0
56 308 0
-307 308 0
47 48 49 50 51 52 307 0
-307 -52 0
-307 -51 0
-307 -50 0
-307 -49 0
-307 -48 0
-307 -47 0
-312 75 311 0
-311 312 0
-75 312 0
-311 -55 310 0
55 311 0
-310 311 0
47 48 49 50 51 52 310 0
-310 -52 0
-310 -51 0
-310 -50 0
-310 -49 0
-310 -48 0
-310 -47 0
-315 70 314 0
-314 315 0
-70 315 0
-314 -54 313 0
54 314 0
-313 314 0
47 48 49 50 51 52 313 0
-313 -52 0
-313 -51 0
-313 -50 0
-313 -49 0
-313 -48 0
-313 -47 0
-318 68 317 0
-317 318 0
-68 318 0
-317 -53 316 0
53 317 0
-316 317 0
47 48 49 50 51 52 316 0
-316 -52 0
-316 -51 0
-316 -50 0
-316 -49 0
-316 -48 0
-316 -47 0
-320 79 319 0
-319 320 0
-79 320 0
-319 -127 126 128 0
-126 319 0
127 319 0
-128 319 0
-323 321 322 0
-321 323 0
-322 323 0
-321 -127 -126 128 0
126 321 0
127 321 0
-128 321 0
-66 -65 322 0
-322 66 0
-322 65 0
-325 78 324 0
-324 325 0
-78 325 0
-324 -128 126 127 0
-126 324 0
-127 324 0
128 324 0
-327 77 326 0
-326 327 0
-77 327 0
-326 -128 -126 127 0
126 326 0
-127 326 0
128 326 0
-329 75 328 0
-328 329 0
-75 329 0
-328 -128 -127 126 0
-126 328 0
127 328 0
128 328 0
-331 69 330 0
-330 331 0
-69 331 0
-330 -128 -127 -126 0
126 330 0
127 330 0
128 330 0
-332 -79 -78 0
78 332 0
79 332 0
-455 339 454 0
-339 455 0
-454 455 0
-338 -337 -336 -335 -334 -333 339 0
-339 333 0
-339 334 0
-339 335 0
-339 336 0
-339 337 0
-339 338 0
-333 -130 -68 129 131 0
68 333 0
-129 333 0
130 333 0
-131 333 0
-334 -130 -129 -67 131 0
67 334 0
129 334 0
130 334 0
-131 334 0
-335 -131 -66 129 130 0
66 335 0
-129 335 0
-130 335 0
131 335 0
-336 -131 -129 -65 130 0
65 336 0
129 336 0
-130 336 0
131 336 0
-337 -131 -130 -64 129 0
64 337 0
-129 337 0
130 337 0
131 337 0
-338 -131 -130 -129 -63 0
63 338 0
129 338 0
130 338 0
131 338 0
-453 -452 -451 -381 -379 -377 -375 -373 -370 -368 -365 -362 -359 -356 -353 -350 -347 -342 454 0
-454 342 0
-454 347 0
-454 350 0
-454 353 0
-454 356 0
-454 359 0
-454 362 0
-454 365 0
-454 368 0
-454 370 0
-454 373 0
-454 375 0
-454 377 0
-454 379 0
-454 381 0
-454 451 0
-454 452 0
-454 453 0
-342 93 341 0
-341 342 0
-93 342 0
-341 -77 340 0
77 341 0
-340 341 0
63 64 65 66 67 68 340 0
-340 -68 0
-340 -67 0
-340 -66 0
-340 -65 0
-340 -64 0
-340 -63 0
-347 344 346 0
-344 347 0
-346 347 0
-344 -76 343 0
76 344 0
-343 344 0
63 64 65 66 67 68 343 0
-343 -68 0
-343 -67 0
-343 -66 0
-343 -65 0
-343 -64 0
-343 -63 0
-345 -81 346 0
-346 345 0
-346 81 0
-345 84 89 92 0
-89 345 0
-84 345 0
-92 345 0
-350 91 349 0
-349 350 0
-91 350 0
-349 -75 348 0
75 349 0
-348 349 0
63 64 65 66 67 68 348 0
-348 -68 0
-348 -67 0
-348 -66 0
-348 -65 0
-348 -64 0
-348 -63 0
-353 90 352 0
-352 353 0
-90 353 0
-352 -74 351 0
74 352 0
-351 352 0
63 64 65 66 67 68 351 0
-351 -68 0
-351 -67 0
-351 -66 0
-351 -65 0
-351 -64 0
-351 -63 0
-356 87 355 0
-355 356 0
-87 356 0
-355 -73 354 0
73 355 0
-354 355 0
63 64 65 66 67 68 354 0
-354 -68 0
-354 -67 0
-354 -66 0
-354 -65 0
-354 -64 0
-354 -63 0
-359 86 358 0
-358 359 0
-86 359 0
-358 -72 357 0
72 358 0
-357 358 0
63 64 65 66 67 68 357 0
-357 -68 0
-357 -67 0
-357 -66 0
-357 -65 0
-357 -64 0
-357 -63 0
-362 85 361 0
-361 362 0
-85 362 0
-361 -71 360 0
71 361 0
-360 361 0
63 64 65 66 67 68 360 0
-360 -68 0
-360 -67 0
-360 -66 0
-360 -65 0
-360 -64 0
-360 -63 0
-365 82 364 0
-364 365 0
-82 365 0
-364 -70 363 0
70 364 0
-363 364 0
63 64 65 66 67 68 363 0
-363 -68 0
-363 -67 0
-363 -66 0
-363 -65 0
-363 -64 0
-363 -63 0
-368 80 367 0
-367 368 0
-80 368 0
-367 -69 366 0
69 367 0
-366 367 0
63 64 65 66 67 68 366 0
-366 -68 0
-366 -67 0
-366 -66 0
-366 -65 0
-366 -64 0
-366 -63 0
-370 93 369 0
-369 370 0
-93 370 0
-369 -130 129 131 0
-129 369 0
130 369 0
-131 369 0
-373 88 371 372 0
-371 373 0
-88 373 0
-372 373 0
-371 -130 -129 131 0
129 371 0
130 371 0
-131 371 0
-94 -83 372 0
-372 94 0
-372 83 0
-375 91 374 0
-374 375 0
-91 375 0
-374 -131 129 130 0
-129 374 0
-130 374 0
131 374 0
-377 90 376 0
-376 377 0
-90 377 0
-376 -131 -129 130 0
129 376 0
-130 376 0
131 376 0
-379 88 378 0
-378 379 0
-88 379 0
-378 -131 -130 129 0
-129 378 0
130 378 0
131 378 0
-381 87 380 0
-380 381 0
-87 381 0
-380 -131 -130 -129 0
129 380 0
130 380 0
131 380 0
-451 386 450 0
-386 451 0
-450 451 0
-385 -384 -383 -382 386 0
-386 382 0
-386 383 0
-386 384 0
-386 385 0
-382 -134 -83 132 133 0
83 382 0
-132 382 0
-133 382 0
134 382 0
-383 -134 -132 -82 133 0
82 383 0
132 383 0
-133 383 0
134 383 0
-384 -134 -133 -81 132 0
81 384 0
-132 384 0
133 384 0
134 384 0
-385 -134 -133 -132 -80 0
80 385 0
132 385 0
133 385 0
134 385 0
-449 -448 -447 -414 -412 -410 -408 -405 -402 -399 -396 -393 -389 450 0
-450 389 0
-450 393 0
-450 396 0
-450 399 0
-450 402 0
-450 405 0
-450 408 0
-450 410 0
-450 412 0
-450 414 0
-450 447 0
-450 448 0
-450 449 0
-389 103 388 0
-388 389 0
-103 389 0
-388 -90 387 0
90 388 0
-387 388 0
80 81 82 83 387 0
-387 -83 0
-387 -82 0
-387 -81 0
-387 -80 0
-393 391 392 0
-391 393 0
-392 393 0
-391 -89 390 0
89 391 0
-390 391 0
80 81 82 83 390 0
-390 -83 0
-390 -82 0
-390 -81 0
-390 -80 0
-104 -98 392 0
-392 104 0
-392 98 0
-396 102 395 0
-395 396 0
-102 396 0
-395 -88 394 0
88 395 0
-394 395 0
80 81 82 83 394 0
-394 -83 0
-394 -82 0
-394 -81 0
-394 -80 0
-399 101 398 0
-398 399 0
-101 399 0
-398 -87 397 0
87 398 0
-397 398 0
80 81 82 83 397 0
-397 -83 0
-397 -82 0
-397 -81 0
-397 -80 0
-402 97 401 0
-401 402 0
-97 402 0
-401 -86 400 0
86 401 0
-400 401 0
80 81 82 83 400 0
-400 -83 0
-400 -82 0
-400 -81 0
-400 -80 0
-405 96 404 0
-404 405 0
-96 405 0
-404 -85 403 0
85 404 0
-403 404 0
80 81 82 83 403 0
-403 -83 0
-403 -82 0
-403 -81 0
-403 -80 0
-408 95 407 0
-407 408 0
-95 408 0
-407 -84 406 0
84 407 0
-406 407 0
80 81 82 83 406 0
-406 -83 0
-406 -82 0
-406 -81 0
-406 -80 0
-410 103 409 0
-409 410 0
-103 410 0
-409 -134 -132 133 0
132 409 0
-133 409 0
134 409 0
-412 99 100 411 0
-411 412 0
-99 412 0
-100 412 0
-411 -134 -133 132 0
-132 411 0
133 411 0
134 411 0
-414 102 413 0
-413 414 0
-102 414 0
-413 -134 -133 -132 0
132 413 0
133 413 0
134 413 0
-447 419 446 0
-419 447 0
-446 447 0
-418 -417 -416 -415 419 0
-419 415 0
-419 416 0
-419 417 0
-419 418 0
-415 -137 -98 135 136 0
98 415 0
-135 415 0
-136 415 0
137 415 0
-416 -137 -135 -97 136 0
97 416 0
135 416 0
-136 416 0
137 416 0
-417 -137 -136 -96 135 0
96 417 0
-135 417 0
136 417 0
137 417 0
-418 -137 -136 -135 -95 0
95 418 0
135 418 0
136 418 0
137 418 0
-445 -433 -432 -430 -427 -425 -422 446 0
-446 422 0
-446 425 0
-446 427 0
-446 430 0
-446 432 0
-446 433 0
-446 445 0
-422 108 421 0
-421 422 0
-108 422 0
-421 -100 420 0
100 421 0
-420 421 0
95 96 97 98 420 0
-420 -98 0
-420 -97 0
-420 -96 0
-420 -95 0
-425 105 424 0
-424 425 0
-105 425 0
-424 -99 423 0
99 424 0
-423 424 0
95 96 97 98 423 0
-423 -98 0
-423 -97 0
-423 -96 0
-423 -95 0
-427 109 426 0
-426 427 0
-109 427 0
-426 -137 -135 136 0
135 426 0
-136 426 0
137 426 0
-430 428 429 0
-428 430 0
-429 430 0
-428 -137 -136 135 0
-135 428 0
136 428 0
137 428 0
-110 -106 429 0
-429 110 0
-429 106 0
-432 107 431 0
-431 432 0
-107 432 0
-431 -137 -136 -135 0
135 431 0
136 431 0
137 431 0
-433 -110 -108 0
108 433 0
110 433 0
-445 436 444 0
-436 445 0
-444 445 0
-435 -434 436 0
-436 434 0
-436 435 0
-434 -139 -106 138 0
106 434 0
-138 434 0
139 434 0
-435 -139 -138 -105 0
105 435 0
138 435 0
139 435 0
-443 -442 -439 444 0
-444 439 0
-444 442 0
-444 443 0
-439 437 438 0
-437 439 0
-438 439 0
-437 -139 -138 0
138 437 0
139 437 0
-113 -111 438 0
-438 113 0
-438 111 0
-442 112 441 0
-441 442 0
-112 442 0
-441 -107 440 0
107 441 0
-440 441 0
105 106 440 0
-440 -106 0
-440 -105 0
-443 -113 -112 0
112 443 0
113 443 0
-448 -104 -102 0
102 448 0
104 448 0
-449 -103 -101 0
101 449 0
103 449 0
-452 -94 -92 0
92 452 0
94 452 0
-453 -93 -91 0
91 453 0
93 453 0
-470 465 469 0
-465 470 0
-469 470 0
-465 -3 464 0
3 465 0
-464 465 0
1 2 464 0
-464 -2 0
-464 -1 0
-468 -467 -466 -14 469 0
-469 14 0
-469 466 0
-469 467 0
-469 468 0
-466 4 10 0
-4 466 0
-10 466 0
-467 9 11 0
-9 467 0
-11 467 0
-468 6 12 0
-6 468 0
-12 468 0
-473 471 472 0
-471 473 0
-472 473 0
-471 -116 115 0
-115 471 0
116 471 0
-13 -8 -7 472 0
-472 13 0
-472 7 0
-472 8 0
-476 474 475 0
-474 476 0
-475 476 0
-474 -116 -115 0
115 474 0
116 474 0
-6 -5 475 0
-475 6 0
-475 5 0
